

******************************************************************************
This program contains Ipopt, a library for large-scale nonlinear optimization.
 Ipopt is released as open source code under the Eclipse Public License (EPL).
         For more information visit https://github.com/coin-or/Ipopt
******************************************************************************

This is Ipopt version 3.14.11, running with linear solver MUMPS 5.5.1.

Number of nonzeros in equality constraint Jacobian...:        0
Number of nonzeros in inequality constraint Jacobian.:        4
Number of nonzeros in Lagrangian Hessian.............:        0

Total number of variables............................:        2
                     variables with only lower bounds:        2
                variables with lower and upper bounds:        0
                     variables with only upper bounds:        0
Total number of equality constraints.................:        0
Total number of inequality constraints...............:        2
        inequality constraints with only lower bounds:        2
   inequality constraints with lower and upper bounds:        0
        inequality constraints with only upper bounds:        0

iter    objective    inf_pr   inf_du lg(mu)  ||d||  lg(rg) alpha_du alpha_pr  ls
   0  2.9999970e-02 1.47e+00 1.00e+00  -1.0 0.00e+00    -  0.00e+00 0.00e+00   0
   1  1.6994759e-01 1.32e+00 4.20e+00  -1.0 5.12e-01    -  2.34e-02 1.09e-01h  1
   2  1.6037510e+00 0.00e+00 3.61e+00  -1.0 4.82e-01    -  2.51e-01 1.00e+00h  1
   3  1.0693097e+00 0.00e+00 2.02e+00  -1.0 1.24e+00    -  3.56e-01 4.27e-01f  1
   4  1.2334820e+00 0.00e+00 3.39e+00  -1.0 1.31e+00    -  1.00e+00 1.23e-01f  3
   5  1.2542816e+00 0.00e+00 1.00e-06  -1.0 2.75e-01    -  1.00e+00 1.00e+00f  1
   6  1.0279486e+00 0.00e+00 3.78e-02  -2.5 3.38e-01    -  1.00e+00 7.99e-01f  1
   7  1.0073858e+00 0.00e+00 2.83e-08  -2.5 2.86e-02    -  1.00e+00 1.00e+00f  1
   8  1.0002984e+00 0.00e+00 1.50e-09  -3.8 4.06e-03    -  1.00e+00 1.00e+00f  1
   9  1.0000036e+00 0.00e+00 1.84e-11  -5.7 1.68e-04    -  1.00e+00 1.00e+00f  1
iter    objective    inf_pr   inf_du lg(mu)  ||d||  lg(rg) alpha_du alpha_pr  ls
  10  9.9999999e-01 0.00e+00 2.51e-14  -8.6 1.92e-06    -  1.00e+00 1.00e+00f  1

Number of Iterations....: 10

                                   (scaled)                 (unscaled)
Objective...............:   9.9999998500624199e-01    9.9999998500624199e-01
Dual infeasibility......:   2.5091040356528538e-14    2.5091040356528538e-14
Constraint violation....:   0.0000000000000000e+00    0.0000000000000000e+00
Variable bound violation:   7.4834036944738110e-09    7.4834036944738110e-09
Complementarity.........:   2.5165963244739762e-09    2.5165963244739762e-09
Overall NLP error.......:   2.5165963244739762e-09    2.5165963244739762e-09


Number of objective function evaluations             = 14
Number of objective gradient evaluations             = 11
Number of equality constraint evaluations            = 0
Number of inequality constraint evaluations          = 14
Number of equality constraint Jacobian evaluations   = 0
Number of inequality constraint Jacobian evaluations = 11
Number of Lagrangian Hessian evaluations             = 10
Total seconds in IPOPT                               = 0.007

EXIT: Optimal Solution Found.
 
Ipopt 3.14.11: Optimal Solution Found
